(set-logic QF_SLIA)
(declare-const result String)
(declare-const attack String)
(declare-const prefix RegLan)
(declare-const infix RegLan)
(declare-const postfix RegLan)
(declare-const postfixs String)

(assert (str.in_re attack (re.++ prefix ((_ re.loop 512 512) infix) postfix)))
(assert (= prefix 
    (str.to_re "")
))
(assert (= infix 
         (str.to_re "\u{2c}")
))
(assert (= postfix 
         (re.++  (str.to_re "\u{0a}") (re.++  (str.to_re "\u{25ce}") (re.++  (str.to_re "\u{0a}") (re.++  (str.to_re "\u{25ce}")  (str.to_re "\u{0a}")))))
))
(assert (str.in_re postfixs postfix))
(assert (>= (str.len postfixs) 1))
(assert (= result (str.++ attack postfixs)))
(check-sat)
(get-model)